  64  48498   

  36  61  27  12   3  34  41  15  60  46  40  30  43  28  11  32  18  48   5
  39  51   6  47  54  29  20  24  55   4  62  19  38  14  52  22  16  64  63
  49  10  56  45   1  44  21  17   8  53  35  58  23   7  25  26  13  57   9
  50  37  33  42  59   2  31                        

